32      4       
11      12      14      14      
0       0       0       0       0       3       2       12      13      
6       1       1       6       4       1       3       
1       1       6       6       7       2       31      4       
5       11      4       1       1       3       30      16      5       
7       1       2       10      1       2       7       6       
8       5       1       5       1       1       8       
5       4       10      1       1       3       29      23      11      
7       7       1       3       11      1       9       
9       1       1       9       8       2       23      10      
1       1       1       2       14      1       14      
2       1       1       1       8       1       14      
7       1       4       1       2       1       14      
9       1       1       3       1       1       14      
10      1       5       1       1       1       15      
9       1       4       2       1       2       28      17      
9       9       1       2       1       2       28      17      
2       4       6       1       1       2       27      18      
2       5       3       1       2       1       19      
1       1       5       1       2       1       20      
10      1       1       8       1       1       21      
1       2       4       1       5       2       26      22      
5       2       1       2       2       1       24      
4       1       6       1       1       1       24      
7       1       3       7       1       1       25      
9       6       1       1       1       1       32      
6       1       2       1       3       1       32      
2       1       1       1       4       1       32      
3       1       5       14      1       1       32      
8       5       1       5       10      1       32      
5       1       1       2       6       1       32      
4       5       7       6       3       1       32      
0       0       0       0       0       0       
